SAT
-1 -100 99 29 45 -93 -38 -37 63 -61 -3 89 97 -7 -32 -86 24 5 8 -42 35 39 -44 9 -19 -40 -55 -41 -59 79 -28 -98 36 27 -95 -92 -72 66 -69 53 -90 -17 -71 80 22 23 4 62 -58 -51 -56 -20 46 -70 -21 -84 -50 14 25 60 6 -33 78 31 52 -2 82 -87 -68 13 30 -74 77 -10 81 -64 47 -11 -54 49 76 43 -34 96 12 94 65 15 88 -57 18 83 -91 -16 -85 48 75 67 -26 73 0
